32	0

0	2	2	3
8	2	4	5
9	1	4
6	2	6	7
9	2	6	7
8	2	8	9
5	2	8	9
9	1	10
2	1	10
4	2	11	12
10	2	13	15
2	2	13	15
8	1	14
9	2	16	17
10	2	16	17
8	1	18
6	1	18
8	2	19	20
6	2	21	22
7	2	21	22
2	1	23
1	2	23	25
2	1	24
6	2	26	27
9	2	26	27
6	3	28	29	30
6	3	28	29	30
3	1	31
9	1	31
1	1	31
8	1	32
0	0
